(set-logic BV) (define-fun origCir ((n107 Bool) (n325 Bool) (n254 Bool) (n207 Bool) (i35 Bool)) Bool (xor (and (xor n325 (not (and n254 n207))) n107) i35)) (synth-fun skel ((n107 Bool) (n325 Bool) (n254 Bool) (n207 Bool) (i35 Bool)) Bool) (declare-var n107 Bool) (declare-var n325 Bool) (declare-var n254 Bool) (declare-var n207 Bool) (declare-var i35 Bool) (constraint (= (origCir n107 n325 n254 n207 i35) (skel n107 n325 n254 n207 i35))) (check-synth)
